(set-logic QF_S)
(declare-fun var0 () String)
(assert (str.in.re var0 (re.++ (re.union (re.union (str.to.re "000") (str.to.re "1")) (re.union (str.to.re "222") (str.to.re "3"))) (re.++ (re.+ (re.union (str.to.re "4") (str.to.re "55"))) (re.++ (re.+ (re.+ (str.to.re "666"))) (re.++ (re.+ (re.union (str.to.re "777") (str.to.re "888"))) (re.++ (re.* (re.union (str.to.re "9") (str.to.re "a"))) (re.union (re.+ (str.to.re "b")) (re.+ (str.to.re "c"))))))))))
(assert (not (str.in.re var0 (re.++ (re.union (re.+ (str.to.re "0")) (re.+ (str.to.re "111"))) (re.++ (re.+ (re.union (str.to.re "222") (str.to.re "33"))) (re.++ (re.* (re.union (str.to.re "444") (str.to.re "555"))) (re.++ (re.+ (re.+ (str.to.re "666"))) (re.++ (re.union (re.+ (str.to.re "7")) (re.+ (str.to.re "8"))) (re.union (re.union (str.to.re "999") (str.to.re "aa")) (re.union (str.to.re "bbb") (str.to.re "cc")))))))))))
(check-sat)